0 5026 
1 5014 
2 4926 
3 4880 
4 4846 
5 4818 
6 4816 
7 4806 
8 4760 
9 4736 
10 4632 
11 4560 
12 4544 
13 4536 
14 4456 
15 4424 
16 4260 
17 4076 
18 4070 
19 4066 
20 4060 
21 3996 
22 3928 
23 3924 
24 3924 
25 3898 
26 3894 
27 3880 
28 3848 
29 3836 
30 3810 
31 3784 
32 3768 
33 3648 
34 3514 
35 3500 
36 3478 
37 3398 
38 3386 
39 3374 
40 3268 
41 3202 
42 3152 
43 3148 
44 3124 
45 3074 
46 3046 
47 3046 
48 3000 
49 2968 
50 2960 
51 2912 
52 2904 
53 2814 
54 2774 
55 2706 
56 2688 
57 2662 
58 2654 
59 2642 
60 2602 
61 2588 
62 2586 
63 2458 
64 2354 
65 2354 
66 2340 
67 2340 
68 2326 
69 2292 
70 2270 
71 2204 
72 2156 
73 2080 
74 2080 
75 2052 
76 2038 
77 1884 
78 1832 
79 1806 
80 1800 
81 1800 
82 1786 
83 1700 
84 1700 
85 1700 
86 1700 
87 1696 
88 1696 
89 1570 
90 1570 
91 1570 
92 1570 
93 1570 
94 1570 
95 1570 
96 1570 
97 1570 
98 1570 
99 1570 
100 1570 
101 1570 
102 1570 
103 1570 
104 1570 
105 1570 
106 1570 
107 1570 
108 1570 
109 1570 
110 1570 
111 1570 
112 1570 
113 1570 
114 1570 
115 1570 
116 1570 
117 1570 
118 1570 
119 1570 
120 1570 
121 1570 
122 1570 
123 1570 
124 1570 
125 1570 
126 1570 
127 1570 
128 1570 
129 1570 
130 1570 
131 1570 
132 1570 
133 1570 
134 1570 
135 1570 
136 1570 
137 1570 
138 1570 
139 1570 
140 1570 
141 1570 
142 1570 
143 1570 
144 1570 
145 1570 
146 1570 
147 1570 
148 1570 
149 1570 
150 1570 
151 1570 
152 1570 
153 1570 
154 1570 
155 1570 
156 1570 
157 1570 
158 1570 
159 1570 
160 1570 
161 1570 
162 1570 
163 1570 
164 1570 
165 1570 
166 1570 
167 1570 
168 1570 
169 1570 
170 1570 
171 1570 
172 1570 
173 1570 
174 1570 
175 1570 
176 1570 
177 1570 
178 1570 
179 1570 
180 1570 
181 1570 
182 1570 
183 1570 
184 1570 
185 1570 
186 1570 
187 1570 
188 1570 
189 1570 
190 1570 
191 1570 
192 1570 
193 1570 
194 1570 
195 1570 
196 1570 
197 1570 
198 1570 
199 1570 
200 1570 
201 1570 
202 1570 
203 1570 
204 1570 
205 1570 
206 1570 
207 1570 
208 1570 
209 1570 
210 1570 
211 1570 
212 1570 
213 1570 
214 1570 
215 1570 
216 1570 
217 1570 
218 1570 
219 1570 
220 1570 
221 1570 
222 1570 
223 1570 
224 1570 
225 1570 
226 1570 
227 1570 
228 1570 
229 1570 
230 1570 
231 1570 
232 1570 
233 1570 
234 1570 
235 1570 
236 1570 
237 1570 
238 1570 
239 1570 
240 1570 
241 1570 
242 1570 
243 1570 
244 1570 
245 1570 
246 1570 
247 1570 
248 1570 
249 1570 
250 1570 
251 1570 
252 1570 
253 1570 
254 1570 
255 1570 
256 1570 
257 1570 
258 1570 
259 1570 
260 1570 
261 1570 
262 1570 
263 1570 
264 1570 
265 1570 
266 1570 
267 1570 
268 1570 
269 1570 
270 1570 
271 1570 
272 1570 
273 1570 
274 1570 
275 1570 
276 1570 
277 1570 
278 1570 
279 1570 
280 1570 
281 1570 
282 1570 
283 1570 
284 1570 
285 1570 
286 1570 
287 1570 
288 1570 
289 1570 
290 1570 
291 1570 
292 1570 
293 1570 
294 1570 
295 1570 
296 1570 
297 1570 
298 1570 
299 1570 
300 1570 
301 1570 
302 1570 
303 1570 
304 1570 
305 1570 
306 1570 
307 1570 
308 1570 
309 1570 
310 1570 
311 1570 
312 1570 
313 1570 
314 1570 
315 1570 
316 1570 
317 1570 
318 1570 
319 1570 
320 1570 
321 1570 
322 1570 
323 1570 
324 1570 
325 1570 
326 1570 
327 1570 
328 1570 
329 1570 
330 1570 
331 1570 
332 1570 
333 1570 
334 1570 
335 1570 
336 1570 
337 1570 
338 1570 
339 1570 
340 1570 
341 1570 
342 1570 
343 1570 
344 1570 
345 1570 
346 1570 
347 1570 
348 1570 
349 1570 
350 1570 
351 1570 
352 1570 
353 1570 
354 1570 
355 1570 
356 1570 
357 1570 
358 1570 
359 1570 
360 1570 
361 1570 
362 1570 
363 1570 
364 1570 
365 1570 
366 1570 
367 1570 
368 1570 
369 1570 
370 1570 
371 1570 
372 1570 
373 1570 
374 1570 
375 1570 
376 1570 
377 1570 
378 1570 
379 1570 
380 1570 
381 1570 
382 1570 
383 1570 
384 1570 
385 1570 
386 1570 
387 1570 
388 1570 
389 1570 
390 1570 
391 1570 
392 1570 
393 1570 
394 1570 
395 1570 
396 1570 
397 1570 
398 1570 
399 1570 
400 1570 
401 1570 
402 1570 
403 1570 
404 1570 
405 1570 
406 1570 
407 1570 
408 1570 
409 1570 
410 1570 
411 1570 
412 1570 
413 1570 
414 1570 
415 1570 
416 1570 
417 1570 
418 1570 
419 1570 
420 1570 
421 1570 
422 1570 
423 1570 
424 1570 
425 1570 
426 1570 
427 1570 
428 1570 
429 1570 
430 1570 
431 1570 
432 1570 
433 1570 
434 1570 
435 1570 
436 1570 
437 1570 
438 1570 
439 1570 
440 1570 
441 1570 
442 1570 
443 1570 
444 1570 
445 1570 
446 1570 
447 1570 
448 1570 
449 1570 
450 1570 
451 1570 
452 1570 
453 1570 
454 1570 
455 1570 
456 1570 
457 1570 
458 1570 
459 1570 
460 1570 
461 1570 
462 1570 
463 1570 
464 1570 
465 1570 
466 1570 
467 1570 
468 1570 
469 1570 
470 1570 
471 1570 
472 1570 
473 1570 
474 1570 
475 1570 
476 1570 
477 1570 
478 1570 
479 1570 
480 1570 
481 1570 
482 1570 
483 1570 
484 1570 
485 1570 
486 1570 
487 1570 
488 1570 
489 1570 
490 1570 
491 1570 
492 1570 
493 1570 
494 1570 
495 1570 
496 1570 
497 1570 
498 1570 
499 1570 
500 1570 
501 1570 
502 1570 
503 1570 
504 1570 
505 1570 
506 1570 
507 1570 
508 1570 
509 1570 
510 1570 
511 1570 
512 1570 
513 1570 
514 1570 
515 1570 
516 1570 
517 1570 
518 1570 
519 1570 
520 1570 
521 1570 
522 1570 
523 1570 
524 1570 
525 1570 
526 1570 
527 1570 
528 1570 
529 1570 
530 1570 
531 1570 
532 1570 
533 1570 
534 1570 
535 1570 
536 1570 
537 1570 
538 1570 
539 1570 
540 1570 
541 1570 
542 1570 
543 1570 
544 1570 
545 1570 
546 1570 
547 1570 
548 1570 
549 1570 
550 1570 
551 1570 
552 1570 
553 1570 
554 1570 
555 1570 
556 1570 
557 1570 
558 1570 
559 1570 
560 1570 
561 1570 
562 1570 
563 1570 
564 1570 
565 1570 
566 1570 
567 1570 
568 1570 
569 1570 
570 1570 
571 1570 
572 1570 
573 1570 
574 1570 
575 1570 
576 1570 
577 1570 
578 1570 
579 1570 
580 1570 
581 1570 
582 1570 
583 1570 
584 1570 
585 1570 
586 1570 
587 1570 
588 1570 
589 1570 
590 1570 
591 1570 
592 1570 
593 1570 
594 1570 
595 1570 
596 1570 
597 1570 
598 1570 
599 1570 
600 1570 
601 1570 
602 1570 
603 1570 
604 1570 
605 1570 
606 1570 
607 1570 
608 1570 
609 1570 
610 1570 
611 1570 
612 1570 
613 1570 
614 1570 
615 1570 
616 1570 
617 1570 
618 1570 
619 1570 
620 1570 
621 1570 
622 1570 
623 1570 
624 1570 
625 1570 
626 1570 
627 1570 
628 1570 
629 1570 
630 1570 
631 1570 
632 1570 
633 1570 
634 1570 
635 1570 
636 1570 
637 1570 
638 1570 
639 1570 
640 1570 
641 1570 
642 1570 
643 1570 
644 1570 
645 1570 
646 1570 
647 1570 
648 1570 
649 1570 
650 1570 
651 1570 
652 1570 
653 1570 
654 1570 
655 1570 
656 1570 
657 1570 
658 1570 
659 1570 
660 1570 
661 1570 
662 1570 
663 1570 
664 1570 
665 1570 
666 1570 
667 1570 
668 1570 
669 1570 
670 1570 
671 1570 
672 1570 
673 1570 
674 1570 
675 1570 
676 1570 
677 1570 
678 1570 
679 1570 
680 1570 
681 1570 
682 1570 
683 1570 
684 1570 
685 1570 
686 1570 
687 1570 
688 1570 
689 1570 
690 1570 
691 1570 
692 1570 
693 1570 
694 1570 
695 1570 
696 1570 
697 1570 
698 1570 
699 1570 
700 1570 
701 1570 
702 1570 
703 1570 
704 1570 
705 1570 
706 1570 
707 1570 
708 1570 
709 1570 
710 1570 
711 1570 
712 1570 
713 1570 
714 1570 
715 1570 
716 1570 
717 1570 
718 1570 
719 1570 
720 1570 
721 1570 
722 1570 
723 1570 
724 1570 
725 1570 
726 1570 
727 1570 
728 1570 
729 1570 
730 1570 
731 1570 
732 1570 
733 1570 
734 1570 
735 1570 
736 1570 
737 1570 
738 1570 
739 1570 
740 1570 
741 1570 
742 1570 
743 1570 
744 1570 
745 1570 
746 1570 
747 1570 
748 1570 
749 1570 
750 1570 
751 1570 
752 1570 
753 1570 
754 1570 
755 1570 
756 1570 
757 1570 
758 1570 
759 1570 
760 1570 
761 1570 
762 1570 
763 1570 
764 1570 
765 1570 
766 1570 
767 1570 
768 1570 
769 1570 
770 1570 
771 1570 
772 1570 
773 1570 
774 1570 
775 1570 
776 1570 
777 1570 
778 1570 
779 1570 
780 1570 
781 1570 
782 1570 
783 1570 
784 1570 
785 1570 
786 1570 
787 1570 
788 1570 
789 1570 
790 1570 
791 1570 
792 1570 
793 1570 
794 1570 
795 1570 
796 1570 
797 1570 
798 1570 
799 1570 
800 1570 
801 1570 
802 1570 
803 1570 
804 1570 
805 1570 
806 1570 
807 1570 
808 1570 
809 1570 
810 1570 
811 1570 
812 1570 
813 1570 
814 1570 
815 1570 
816 1570 
817 1570 
818 1570 
819 1570 
820 1570 
821 1570 
822 1570 
823 1570 
824 1570 
825 1570 
826 1570 
827 1570 
828 1570 
829 1570 
830 1570 
831 1570 
832 1570 
833 1570 
834 1570 
835 1570 
836 1570 
837 1570 
838 1570 
839 1570 
840 1570 
841 1570 
842 1570 
843 1570 
844 1570 
845 1570 
846 1570 
847 1570 
848 1570 
849 1570 
850 1570 
851 1570 
852 1570 
853 1570 
854 1570 
855 1570 
856 1570 
857 1570 
858 1570 
859 1570 
860 1570 
861 1570 
862 1570 
863 1570 
864 1570 
865 1570 
866 1570 
867 1570 
868 1570 
869 1570 
870 1570 
871 1570 
872 1570 
873 1570 
874 1570 
875 1570 
876 1570 
877 1570 
878 1570 
879 1570 
880 1570 
881 1570 
882 1570 
883 1570 
884 1570 
885 1570 
886 1570 
887 1570 
888 1570 
889 1570 
890 1570 
891 1570 
892 1570 
893 1570 
894 1570 
895 1570 
896 1570 
897 1570 
898 1570 
899 1570 
900 1570 
901 1570 
902 1570 
903 1570 
904 1570 
905 1570 
906 1570 
907 1570 
908 1570 
909 1570 
910 1570 
911 1570 
912 1570 
913 1570 
914 1570 
915 1570 
916 1570 
917 1570 
918 1570 
919 1570 
920 1570 
921 1570 
922 1570 
923 1570 
924 1570 
925 1570 
926 1570 
927 1570 
928 1570 
929 1570 
930 1570 
931 1570 
932 1570 
933 1570 
934 1570 
935 1570 
936 1570 
937 1570 
938 1570 
939 1570 
940 1570 
941 1570 
942 1570 
943 1570 
944 1570 
945 1570 
946 1570 
947 1570 
948 1570 
949 1570 
950 1570 
951 1570 
952 1570 
953 1570 
954 1570 
955 1570 
956 1570 
957 1570 
958 1570 
959 1570 
960 1570 
961 1570 
962 1570 
963 1570 
964 1570 
965 1570 
966 1570 
967 1570 
968 1570 
969 1570 
970 1570 
971 1570 
972 1570 
973 1570 
974 1570 
975 1570 
976 1570 
977 1570 
978 1570 
979 1570 
980 1570 
981 1570 
982 1570 
983 1570 
984 1570 
985 1570 
986 1570 
987 1570 
988 1570 
989 1570 
990 1570 
991 1570 
992 1570 
993 1570 
994 1570 
995 1570 
996 1570 
997 1570 
998 1570 
999 1570 
1000 1570 
1001 1570 
1002 1570 
1003 1570 
1004 1570 
1005 1570 
1006 1570 
1007 1570 
1008 1570 
1009 1570 
1010 1570 
1011 1570 
1012 1570 
1013 1570 
1014 1570 
1015 1570 
1016 1570 
1017 1570 
1018 1570 
1019 1570 
1020 1570 
1021 1570 
1022 1570 
1023 1570 
1024 1570 
1025 1570 
1026 1570 
1027 1570 
1028 1570 
1029 1570 
1030 1570 
1031 1570 
1032 1570 
1033 1570 
1034 1570 
1035 1570 
1036 1570 
1037 1570 
1038 1570 
1039 1570 
1040 1570 
1041 1570 
1042 1570 
1043 1570 
1044 1570 
1045 1570 
1046 1570 
1047 1570 
1048 1570 
1049 1570 
1050 1570 
1051 1570 
1052 1570 
1053 1570 
1054 1570 
1055 1570 
1056 1570 
1057 1570 
1058 1570 
1059 1570 
1060 1570 
1061 1570 
1062 1570 
1063 1570 
1064 1570 
1065 1570 
1066 1570 
1067 1570 
1068 1570 
1069 1570 
1070 1570 
1071 1570 
1072 1570 
1073 1570 
1074 1570 
1075 1570 
1076 1570 
1077 1570 
1078 1570 
1079 1570 
1080 1570 
1081 1570 
1082 1570 
1083 1570 
1084 1570 
1085 1570 
1086 1570 
1087 1570 
1088 1570 
1089 1570 
1090 1570 
1091 1570 
1092 1570 
1093 1570 
1094 1570 
1095 1570 
1096 1570 
1097 1570 
1098 1570 
1099 1570 
1100 1570 
1101 1570 
1102 1570 
1103 1570 
1104 1570 
1105 1570 
1106 1570 
1107 1570 
1108 1570 
1109 1570 
1110 1570 
1111 1570 
1112 1570 
1113 1570 
1114 1570 
1115 1570 
1116 1570 
1117 1570 
1118 1570 
1119 1570 
1120 1570 
1121 1570 
1122 1570 
1123 1570 
1124 1570 
1125 1570 
1126 1570 
1127 1570 
1128 1570 
1129 1570 
1130 1570 
1131 1570 
1132 1570 
1133 1570 
1134 1570 
1135 1570 
1136 1570 
1137 1570 
1138 1570 
1139 1570 
1140 1570 
1141 1570 
1142 1570 
1143 1570 
1144 1570 
1145 1570 
1146 1570 
1147 1570 
1148 1570 
1149 1570 
1150 1570 
1151 1570 
1152 1570 
1153 1570 
1154 1570 
1155 1570 
1156 1570 
1157 1570 
1158 1570 
1159 1570 
1160 1570 
1161 1570 
1162 1570 
1163 1570 
1164 1570 
1165 1570 
1166 1570 
1167 1570 
1168 1570 
1169 1570 
1170 1570 
1171 1570 
1172 1570 
1173 1570 
1174 1570 
1175 1570 
1176 1570 
1177 1570 
1178 1570 
1179 1570 
1180 1570 
1181 1570 
1182 1570 
1183 1570 
1184 1570 
1185 1570 
1186 1570 
1187 1570 
1188 1570 
1189 1570 
1190 1570 
1191 1570 
1192 1570 
1193 1570 
1194 1570 
1195 1570 
1196 1570 
1197 1570 
1198 1570 
1199 1570 
1200 1570 
1201 1570 
1202 1570 
1203 1570 
1204 1570 
1205 1570 
1206 1570 
1207 1570 
1208 1570 
1209 1570 
1210 1570 
1211 1570 
1212 1570 
1213 1570 
1214 1570 
1215 1570 
1216 1570 
1217 1570 
1218 1570 
1219 1570 
1220 1570 
1221 1570 
1222 1570 
1223 1570 
1224 1570 
1225 1570 
1226 1570 
1227 1570 
1228 1570 
1229 1570 
1230 1570 
1231 1570 
1232 1570 
1233 1570 
1234 1570 
1235 1570 
1236 1570 
1237 1570 
1238 1570 
1239 1570 
1240 1570 
1241 1570 
1242 1570 
1243 1570 
1244 1570 
1245 1570 
1246 1570 
1247 1570 
1248 1570 
1249 1570 
1250 1570 
1251 1570 
1252 1570 
1253 1570 
1254 1570 
1255 1570 
1256 1570 
1257 1570 
1258 1570 
1259 1570 
1260 1570 
1261 1570 
1262 1570 
1263 1570 
1264 1570 
1265 1570 
1266 1570 
1267 1570 
1268 1570 
1269 1570 
1270 1570 
1271 1570 
1272 1570 
1273 1570 
1274 1570 
1275 1570 
1276 1570 
1277 1570 
1278 1570 
1279 1570 
1280 1570 
1281 1570 
1282 1570 
1283 1570 
1284 1570 
1285 1570 
1286 1570 
1287 1570 
1288 1570 
1289 1570 
1290 1570 
1291 1570 
1292 1570 
1293 1570 
1294 1570 
1295 1570 
1296 1570 
1297 1570 
1298 1570 
1299 1570 
1300 1570 
1301 1570 
1302 1570 
1303 1570 
1304 1570 
1305 1570 
1306 1570 
1307 1570 
1308 1570 
1309 1570 
1310 1570 
1311 1570 
1312 1570 
1313 1570 
1314 1570 
1315 1570 
1316 1570 
1317 1570 
1318 1570 
1319 1570 
1320 1570 
1321 1570 
1322 1570 
1323 1570 
1324 1570 
1325 1570 
1326 1570 
1327 1570 
1328 1570 
1329 1570 
1330 1570 
1331 1570 
1332 1570 
1333 1570 
1334 1570 
1335 1570 
1336 1570 
1337 1570 
1338 1570 
1339 1570 
1340 1570 
1341 1570 
1342 1570 
1343 1570 
1344 1570 
1345 1570 
1346 1570 
1347 1570 
1348 1570 
1349 1570 
1350 1570 
1351 1570 
1352 1570 
1353 1570 
1354 1570 
1355 1570 
1356 1570 
1357 1570 
1358 1570 
1359 1570 
1360 1570 
1361 1570 
1362 1570 
1363 1570 
1364 1570 
1365 1570 
1366 1570 
1367 1570 
1368 1570 
1369 1570 
1370 1570 
1371 1570 
1372 1570 
1373 1570 
1374 1570 
1375 1570 
1376 1570 
1377 1570 
1378 1570 
1379 1570 
1380 1570 
1381 1570 
1382 1570 
1383 1570 
1384 1570 
1385 1570 
1386 1570 
1387 1570 
1388 1570 
1389 1570 
1390 1570 
1391 1570 
1392 1570 
1393 1570 
1394 1570 
1395 1570 
1396 1570 
1397 1570 
1398 1570 
1399 1570 
1400 1570 
1401 1570 
1402 1570 
1403 1570 
1404 1570 
1405 1570 
1406 1570 
1407 1570 
1408 1570 
1409 1570 
1410 1570 
1411 1570 
1412 1570 
1413 1570 
1414 1570 
1415 1570 
1416 1570 
1417 1570 
1418 1570 
1419 1570 
1420 1570 
1421 1570 
1422 1570 
1423 1570 
1424 1570 
1425 1570 
1426 1570 
1427 1570 
1428 1570 
1429 1570 
1430 1570 
1431 1570 
1432 1570 
1433 1570 
1434 1570 
1435 1570 
1436 1570 
1437 1570 
1438 1570 
1439 1570 
1440 1570 
1441 1570 
1442 1570 
1443 1570 
1444 1570 
1445 1570 
1446 1570 
1447 1570 
1448 1570 
1449 1570 
1450 1570 
1451 1570 
1452 1570 
1453 1570 
1454 1570 
1455 1570 
1456 1570 
1457 1570 
1458 1570 
1459 1570 
1460 1570 
1461 1570 
1462 1570 
1463 1570 
1464 1570 
1465 1570 
1466 1570 
1467 1570 
1468 1570 
1469 1570 
1470 1570 
1471 1570 
1472 1570 
1473 1570 
1474 1570 
1475 1570 
1476 1570 
1477 1570 
1478 1570 
1479 1570 
1480 1570 
1481 1570 
1482 1570 
1483 1570 
1484 1570 
1485 1570 
1486 1570 
1487 1570 
1488 1570 
1489 1570 
1490 1570 
1491 1570 
1492 1570 
1493 1570 
1494 1570 
1495 1570 
1496 1570 
1497 1570 
1498 1570 
1499 1570 
1500 1570 
1501 1570 
1502 1570 
1503 1570 
1504 1570 
1505 1570 
1506 1570 
1507 1570 
1508 1570 
1509 1570 
1510 1570 
1511 1570 
1512 1570 
1513 1570 
1514 1570 
1515 1570 
1516 1570 
1517 1570 
1518 1570 
1519 1570 
1520 1570 
1521 1570 
1522 1570 
1523 1570 
1524 1570 
1525 1570 
1526 1570 
1527 1570 
1528 1570 
1529 1570 
1530 1570 
1531 1570 
1532 1570 
1533 1570 
1534 1570 
1535 1570 
1536 1570 
1537 1570 
1538 1570 
1539 1570 
1540 1570 
1541 1570 
1542 1570 
1543 1570 
1544 1570 
1545 1570 
1546 1570 
1547 1570 
1548 1570 
1549 1570 
1550 1570 
1551 1570 
1552 1570 
1553 1570 
1554 1570 
1555 1570 
1556 1570 
1557 1570 
1558 1570 
1559 1570 
1560 1570 
1561 1570 
1562 1570 
1563 1570 
1564 1570 
1565 1570 
1566 1570 
1567 1570 
1568 1570 
1569 1570 
1570 1570 
1571 1570 
1572 1570 
1573 1570 
1574 1570 
1575 1570 
1576 1570 
1577 1570 
1578 1570 
1579 1570 
1580 1570 
1581 1570 
1582 1570 
1583 1570 
1584 1570 
1585 1570 
1586 1570 
1587 1570 
1588 1570 
1589 1570 
1590 1570 
1591 1570 
1592 1570 
1593 1570 
1594 1570 
1595 1570 
1596 1570 
1597 1570 
1598 1570 
1599 1570 
1600 1570 
1601 1570 
1602 1570 
1603 1570 
1604 1570 
1605 1570 
1606 1570 
1607 1570 
1608 1570 
1609 1570 
1610 1570 
1611 1570 
1612 1570 
1613 1570 
1614 1570 
1615 1570 
1616 1570 
1617 1570 
1618 1570 
1619 1570 
1620 1570 
1621 1570 
1622 1570 
1623 1570 
1624 1570 
1625 1570 
1626 1570 
1627 1570 
1628 1570 
1629 1570 
1630 1570 
1631 1570 
1632 1570 
1633 1570 
1634 1570 
1635 1570 
1636 1570 
1637 1570 
1638 1570 
1639 1570 
1640 1570 
1641 1570 
1642 1570 
1643 1570 
1644 1570 
1645 1570 
1646 1570 
1647 1570 
1648 1570 
1649 1570 
1650 1570 
1651 1570 
1652 1570 
1653 1570 
1654 1570 
1655 1570 
1656 1570 
1657 1570 
1658 1570 
1659 1570 
1660 1570 
1661 1570 
1662 1570 
1663 1570 
1664 1570 
1665 1570 
1666 1570 
1667 1570 
1668 1570 
1669 1570 
1670 1570 
1671 1570 
1672 1570 
1673 1570 
1674 1570 
1675 1570 
1676 1570 
1677 1570 
1678 1570 
1679 1570 
1680 1570 
1681 1570 
1682 1570 
1683 1570 
1684 1570 
1685 1570 
1686 1570 
1687 1570 
1688 1570 
1689 1570 
1690 1570 
1691 1570 
1692 1570 
1693 1570 
1694 1570 
1695 1570 
1696 1570 
1697 1570 
1698 1570 
1699 1570 
1700 1570 
1701 1570 
1702 1570 
1703 1570 
1704 1570 
1705 1570 
1706 1570 
1707 1570 
1708 1570 
1709 1570 
1710 1570 
1711 1570 
1712 1570 
1713 1570 
1714 1570 
1715 1570 
1716 1570 
1717 1570 
1718 1570 
1719 1570 
1720 1570 
1721 1570 
1722 1570 
1723 1570 
1724 1570 
1725 1570 
1726 1570 
1727 1570 
1728 1570 
1729 1570 
1730 1570 
1731 1570 
1732 1570 
1733 1570 
1734 1570 
1735 1570 
1736 1570 
1737 1570 
1738 1570 
1739 1570 
1740 1570 
1741 1570 
1742 1570 
1743 1570 
1744 1570 
1745 1570 
1746 1570 
1747 1570 
1748 1570 
1749 1570 
1750 1570 
1751 1570 
1752 1570 
1753 1570 
1754 1570 
1755 1570 
1756 1570 
1757 1570 
1758 1570 
1759 1570 
1760 1570 
1761 1570 
1762 1570 
1763 1570 
1764 1570 
1765 1570 
1766 1570 
1767 1570 
1768 1570 
1769 1570 
1770 1570 
1771 1570 
1772 1570 
1773 1570 
1774 1570 
1775 1570 
1776 1570 
1777 1570 
1778 1570 
1779 1570 
1780 1570 
1781 1570 
1782 1570 
1783 1570 
1784 1570 
1785 1570 
1786 1570 
1787 1570 
1788 1570 
1789 1570 
1790 1570 
1791 1570 
1792 1570 
1793 1570 
1794 1570 
1795 1570 
1796 1570 
1797 1570 
1798 1570 
1799 1570 
1800 1570 
1801 1570 
1802 1570 
1803 1570 
1804 1570 
1805 1570 
1806 1570 
1807 1570 
1808 1570 
1809 1570 
1810 1570 
1811 1570 
1812 1570 
1813 1570 
1814 1570 
1815 1570 
1816 1570 
1817 1570 
1818 1570 
1819 1570 
1820 1570 
1821 1570 
1822 1570 
1823 1570 
1824 1570 
1825 1570 
1826 1570 
1827 1570 
1828 1570 
1829 1570 
1830 1570 
1831 1570 
1832 1570 
1833 1570 
1834 1570 
1835 1570 
1836 1570 
1837 1570 
1838 1570 
1839 1570 
1840 1570 
1841 1570 
1842 1570 
1843 1570 
1844 1570 
1845 1570 
1846 1570 
1847 1570 
1848 1570 
1849 1570 
1850 1570 
1851 1570 
1852 1570 
1853 1570 
1854 1570 
1855 1570 
1856 1570 
1857 1570 
1858 1570 
1859 1570 
1860 1570 
1861 1570 
1862 1570 
1863 1570 
1864 1570 
1865 1570 
1866 1570 
1867 1570 
1868 1570 
1869 1570 
1870 1570 
1871 1570 
1872 1570 
1873 1570 
1874 1570 
1875 1570 
1876 1570 
1877 1570 
1878 1570 
1879 1570 
1880 1570 
1881 1570 
1882 1570 
1883 1570 
1884 1570 
1885 1570 
1886 1570 
1887 1570 
1888 1570 
1889 1570 

